NAME : TW_55_seed_None_id_4
TYPE : CVRPTW
DIMENSION : 21
EDGE_WEIGHT_TYPE : EUC_2D
CAPACITY : 40
SERVICE_TIME : 100
LATE_COEFF : 0
NODE_COORD_SECTION
1	288	388
2	650	414
3	158	829
4	66	720
5	648	520
6	154	856
7	424	840
8	271	251
9	716	879
10	260	116
11	592	120
12	889	434
13	518	501
14	88	268
15	970	858
16	537	74
17	185	351
18	204	608
19	607	342
20	899	56
21	28	72
DEMAND_SECTION
1	0
2	7
3	2
4	1
5	7
6	8
7	6
8	2
9	9
10	8
11	6
12	6
13	2
14	2
15	6
16	6
17	10
18	4
19	7
20	7
21	10
TIME_WINDOW_SECTION
1	0	10000
2	0	10000
3	0	10000
4	0	10000
5	0	10000
6	0	10000
7	0	10000
8	0	10000
9	0	10000
10	0	10000
11	0	10000
12	0	10000
13	0	10000
14	0	10000
15	0	10000
16	0	10000
17	0	10000
18	0	10000
19	0	10000
20	0	10000
21	0	10000
DEPOT_SECTION
1
-1
EOF
